100
17 4
6 0
38 0
24 3
31 1
11 4
31 3
1 4
42 0
37 1
8 3
32 3
22 2
6 3
2 4
24 0
18 4
25 4
26 4
38 3
22 0
32 0
8 4
15 4
41 2
9 3
14 2
7 3
44 0
12 2
10 0
20 0
3 4
29 2
8 0
39 4
22 4
13 3
26 0
31 4
24 2
25 1
3 0
19 4
40 0
33 1
36 4
30 4
0 4
0 1
7 0
37 0
28 3
6 4
20 4
37 3
2 3
30 0
4 0
16 4
25 3
38 4
10 4
21 4
27 1
43 0
33 4
14 3
26 3
13 2
1 3
9 4
23 0
5 0
23 1
7 4
32 4
41 0
36 1
24 4
21 1
14 0
18 0
15 1
34 2
16 0
9 1
34 4
43 2
43 3
40 4
0 0
27 4
33 0
3 3
19 3
12 4
27 0
10 3
11 0

